
        $ From http://www.csplib.org/Problems/prob009/data/helmut.pdf
        $ Problem number 102
        $ Sequence length : 25
        language ESSENCE' 1.0
        letting sizemaster be 359
        letting sizes be sequence(7,8,9,10,14,17,18,23,25,27,29,31,40,41,43,46,69,74,82,85,90,98,102,172,187)
        